% File represents an instance of a Composite Structure problem to be solved by a CP framework
% Created on 2025-03-26 10:41:46.877
T = 58;
n = 36;
m = 60;
edges = [(2, 1),
(8, 7),
(13, 14),
(20, 19),
(26, 25),
(32, 31),
(2, 3),
(8, 9),
(14, 15),
(21, 20),
(27, 26),
(32, 33),
(3, 4),
(9, 10),
(15, 16),
(21, 22),
(27, 28),
(33, 34),
(5, 4),
(11, 10),
(17, 16),
(23, 22),
(29, 28),
(35, 34),
(5, 6),
(12, 11),
(18, 17),
(23, 24),
(29, 30),
(35, 36),
(1, 7),
(13, 7),
(13, 19),
(25, 19),
(31, 25),
(2, 8),
(8, 14),
(20, 14),
(26, 20),
(32, 26),
(3, 9),
(9, 15),
(21, 15),
(27, 21),
(27, 33),
(10, 4),
(10, 16),
(22, 16),
(28, 22),
(28, 34),
(5, 11),
(11, 17),
(23, 17),
(29, 23),
(29, 35),
(12, 6),
(12, 18),
(18, 24),
(30, 24),
(30, 36)];
counts = [|18, 12, 18, 6,
|18, 12, 18, 10,
|18, 10, 18, 6,
|18, 8, 18, 2,
|18, 10, 18, 6,
|18, 10, 18, 2,
|18, 10, 18, 6,
|18, 10, 18, 8,
|18, 10, 18, 4,
|18, 10, 18, 2,
|18, 10, 18, 4,
|20, 10, 20, 4,
|18, 10, 18, 8,
|16, 10, 16, 6,
|16, 10, 16, 4,
|16, 10, 16, 2,
|18, 10, 18, 2,
|18, 10, 18, 4,
|16, 8, 16, 8,
|16, 10, 16, 8,
|16, 10, 16, 10,
|16, 10, 16, 4,
|18, 10, 18, 6,
|18, 8, 18, 2,
|16, 8, 16, 10,
|16, 10, 16, 10,
|16, 10, 16, 16,
|16, 10, 16, 10,
|18, 10, 18, 12,
|18, 8, 18, 8,
|16, 12, 16, 12,
|16, 14, 16, 12,
|16, 10, 16, 12,
|16, 10, 16, 8,
|16, 10, 16, 10,
|16, 6, 16, 8|];
